(set-info :smt-lib-version 2.6)
(set-logic QF_LIA)
(set-info :category "industrial")
(set-info :status sat)
(declare-fun x0 () Int)
(declare-fun x1 () Int)
(declare-fun x10 () Int)
(declare-fun x11 () Int)
(declare-fun x12 () Int)
(declare-fun x13 () Int)
(declare-fun x14 () Int)
(declare-fun x15 () Int)
(declare-fun x16 () Int)
(declare-fun x17 () Int)
(declare-fun x18 () Int)
(declare-fun x19 () Int)
(declare-fun x2 () Int)
(declare-fun x3 () Int)
(declare-fun x4 () Int)
(declare-fun x5 () Int)
(declare-fun x6 () Int)
(declare-fun x7 () Int)
(declare-fun x8 () Int)
(declare-fun x9 () Int)
(assert (let ((?v_2 (* 0 x1)) (?v_8 (* 0 x13)) (?v_19 (* 0 x14)) (?v_9 (* 0 x16)) (?v_4 (* 1 x17)) (?v_0 (* 0 x18)) (?v_1 (* 0 x2)) (?v_16 (* 0 x3)) (?v_26 (* 0 x8)) (?v_5 (* 1 x6)) (?v_6 (* 1 x11)) (?v_14 (* 1 x12)) (?v_10 (* 0 x17)) (?v_51 (* 1 x3)) (?v_11 (* 0 x19)) (?v_13 (* 0 x4)) (?v_20 (* 1 x13)) (?v_39 (* 0 x15)) (?v_17 (* 0 x5)) (?v_46 (* 0 x7)) (?v_24 (* 1 x19)) (?v_52 (* 1 x8)) (?v_29 (* 0 x9)) (?v_43 (* 1 x18)) (?v_32 (* 1 x4)) (?v_30 (* 0 x10)) (?v_31 (* 0 x11)) (?v_28 (* 1 x7)) (?v_48 (* 1 x9)) (?v_34 (* 0 x0)) (?v_38 (* 0 x12)) (?v_33 (* 1 x0)) (?v_42 (* 1 x15)) (?v_53 (* 1 x10)) (?v_50 (* 1 x1)) (?v_54 (* 0 x6)) (?v_55 (* 1 x14)) (?v_15 (* (- 1) x19)) (?v_36 (* (- 1) x7)) (?v_22 (* (- 1) x13)) (?v_3 (* (- 1) x14)) (?v_7 (* (- 1) x15)) (?v_18 (* (- 1) x8)) (?v_12 (* (- 1) x9)) (?v_37 (* (- 1) x10)) (?v_23 (* (- 1) x18)) (?v_27 (* (- 1) x5)) (?v_41 (* (- 1) x11)) (?v_21 (* (- 1) x4)) (?v_25 (* (- 1) x6)) (?v_35 (* (- 1) x3)) (?v_44 (* (- 1) x12)) (?v_40 (* (- 1) x0)) (?v_45 (* (- 1) x1)) (?v_47 (* (- 1) x16)) (?v_49 (* (- 2) x9))) (and (<= (+ (* (- 2) x11) (+ ?v_15 (+ ?v_36 (+ ?v_2 (+ ?v_8 (+ (* (- 2) x4) (+ ?v_19 (+ ?v_9 (+ ?v_4 (+ ?v_0 (+ ?v_1 (+ ?v_16 (+ ?v_26 (+ (* 1 x5) ?v_5)))))))))))))) 0) (<= (+ ?v_6 (+ ?v_14 (+ ?v_22 (+ ?v_3 (+ ?v_7 (+ ?v_10 (+ ?v_51 (+ ?v_18 (+ ?v_12 (+ ?v_0 (+ ?v_11 (+ ?v_1 ?v_13)))))))))))) 1) (<= (+ ?v_2 (+ ?v_20 (+ ?v_3 (+ ?v_39 (+ ?v_4 (+ ?v_17 (+ ?v_46 (+ (* 1 x16) (+ ?v_24 (+ ?v_1 (+ ?v_52 (+ ?v_29 (+ ?v_43 (+ ?v_32 ?v_5)))))))))))))) 0) (<= (+ ?v_37 (+ ?v_6 (+ (* (- 2) x12) (+ ?v_7 (+ ?v_8 (+ ?v_9 (+ ?v_10 (+ ?v_23 (+ ?v_27 (+ ?v_11 (+ ?v_12 ?v_13))))))))))) 1) (<= (+ ?v_41 (+ ?v_14 (+ ?v_15 (+ ?v_9 (+ ?v_10 (+ ?v_0 (+ ?v_1 (+ ?v_16 (+ ?v_21 (+ ?v_17 (+ ?v_25 (+ ?v_18 ?v_19)))))))))))) 0) (<= (+ ?v_30 (+ ?v_35 (+ ?v_31 (+ ?v_14 (+ ?v_7 (+ ?v_20 (+ ?v_21 (+ ?v_19 (+ ?v_11 (+ ?v_1 (+ ?v_17 (+ ?v_28 ?v_48)))))))))))) 1) (<= (+ ?v_44 (+ ?v_34 (+ ?v_22 (+ ?v_10 (+ (* 2 x15) (+ ?v_23 (+ ?v_24 (+ ?v_1 (+ ?v_16 (+ ?v_25 (+ ?v_13 ?v_26))))))))))) 0) (<= (+ ?v_40 (+ (* (- 2) x8) (+ ?v_45 (+ ?v_6 (+ ?v_4 (+ ?v_15 (+ ?v_27 (+ ?v_9 (+ ?v_25 (+ ?v_13 (+ ?v_28 ?v_29))))))))))) (- 1)) (<= (+ ?v_30 (+ ?v_31 (+ ?v_38 (+ ?v_16 (+ ?v_33 (+ (* (- 2) x15) (+ ?v_27 (+ ?v_20 (+ ?v_25 (+ ?v_26 (+ ?v_12 ?v_32))))))))))) (- 1)) (<= (+ ?v_33 (+ ?v_22 (+ ?v_2 (+ ?v_6 (+ ?v_14 (+ (* 2 x16) (+ (* 2 x17) (+ ?v_23 (+ ?v_1 (+ ?v_16 (+ ?v_25 (+ ?v_29 ?v_32)))))))))))) 1) (<= (+ ?v_34 (+ ?v_47 (+ ?v_35 (+ ?v_36 (+ ?v_2 (+ ?v_8 (+ ?v_42 (+ ?v_4 (+ ?v_24 (+ ?v_1 ?v_17)))))))))) (- 1)) (<= (+ ?v_37 (+ ?v_31 (+ ?v_38 (+ ?v_8 (+ (* (- 1) x2) (+ (* 2 x1) (+ ?v_19 (+ ?v_39 (+ ?v_9 (+ ?v_10 (+ ?v_11 (+ ?v_16 (+ ?v_13 (+ ?v_26 ?v_29)))))))))))))) (- 1)) (<= (+ ?v_40 (+ ?v_37 (+ ?v_41 (+ ?v_2 (+ ?v_8 (+ ?v_19 (+ ?v_10 (+ ?v_42 (+ ?v_1 (+ ?v_29 (+ ?v_43 (+ (* 2 x19) ?v_13)))))))))))) 1) (<= (+ ?v_44 (+ ?v_34 (+ ?v_53 (+ ?v_15 (+ ?v_27 (+ ?v_49 (+ ?v_19 (+ ?v_9 (+ ?v_4 (+ ?v_26 ?v_5)))))))))) (- 1)) (<= (+ ?v_34 (+ ?v_45 (+ ?v_31 (+ ?v_14 (+ ?v_15 (+ ?v_35 (+ ?v_18 (+ ?v_8 (+ ?v_19 (+ ?v_39 (+ ?v_9 (+ ?v_4 (+ ?v_1 (+ ?v_17 (+ ?v_46 ?v_32))))))))))))))) 0) (<= (+ ?v_40 (+ ?v_6 (+ ?v_44 (+ ?v_47 (+ (* (- 1) x17) (+ ?v_18 (+ ?v_8 (+ ?v_50 (+ ?v_25 (+ ?v_19 (+ ?v_1 (+ ?v_16 (+ ?v_13 (+ ?v_17 ?v_48)))))))))))))) (- 1)) (<= (+ ?v_41 (+ ?v_33 (+ ?v_14 (+ ?v_27 (+ ?v_49 (+ ?v_8 (+ ?v_50 (+ ?v_0 (+ ?v_11 (+ ?v_51 (+ (* 2 x2) (+ ?v_13 (+ ?v_54 ?v_52))))))))))))) 0) (<= (+ ?v_40 (+ ?v_41 (+ ?v_22 (+ ?v_2 (+ ?v_53 (+ ?v_14 (+ ?v_10 (+ ?v_11 (+ ?v_16 (+ ?v_25 (+ ?v_13 (+ ?v_46 (+ ?v_55 (* 2 x8)))))))))))))) (- 1)) (<= (+ ?v_40 (+ ?v_30 (+ ?v_31 (+ ?v_38 (+ ?v_47 (+ ?v_10 (+ ?v_15 (+ ?v_27 (+ ?v_36 (+ ?v_49 (+ ?v_2 (+ ?v_54 (+ ?v_26 ?v_55))))))))))))) (- 1)) (<= (+ ?v_49 (+ ?v_45 (+ ?v_37 (+ ?v_31 (+ ?v_38 (+ ?v_22 (+ ?v_42 (+ ?v_47 (+ ?v_23 (+ ?v_11 (+ ?v_17 (+ ?v_54 ?v_32)))))))))))) 0))))
(check-sat)
(exit)
